c Random 3-SAT formula
c Number of variables: 5
c Number of clauses: 18
p cnf 5 18
-3 2 -5 0
-3 -1 2 0
-3 4 -5 0
1 -3 5 0
1 4 5 0
1 -2 4 0
2 4 1 0
-1 2 5 0
2 -3 4 0
1 2 5 0
2 -1 -5 0
-4 2 3 0
4 3 5 0
-2 5 -1 0
-3 4 5 0
-4 -3 -5 0
-4 -5 2 0
4 -5 -3 0
